60 300

88 30
26 9
45 21
64 24
79 12
68 10
73 33
32 37
13 5
88 26
96 13
19 21
27 25
60 27
65 9
36 7
21 1
73 38
64 33
89 6
14 4
71 40
46 29
27 19
55 25
42 16
86 36
10 36
12 47
31 21
11 39
40 47
60 2
79 28
30 40
43 7
82 17
94 3
60 21
64 36
91 6
66 36
33 29
19 20
35 28
67 16
61 7
90 5
63 15
15 16
60 31
71 21
99 11
33 18
90 14
27 27
80 23
58 32
36 6
18 9
